NAME: STSP_50_v1
TYPE: TSP
COMMENT: GENERATED MATRIX | RNN_UB=2909
DIMENSION: 50
EDGE_WEIGHT_TYPE: EXPLICIT
EDGE_WEIGHT_FORMAT: FULL_MATRIX
EDGE_WEIGHT_SECTION
   -1  528   22  511  676  132  853  625  543   26  558  548  332  970  650  744  615  815  412  905  150  717  692  234  419  627  600  356  716  657  623  636  494  203  196  245  112  545  539  262  566  658  946   21  697   64  615  474  170  639
  528   -1  256  847  846  938   10   21  902  614   61  281  240   51  340  174  538  496  168  503  217  934  254  257  619  749  370  486  286  971  128  123  336  226  890  593  530  710  532  739  187  466  102  938  544  914  951  139  153  386
   22  256   -1  846  351  282  473  548  384  990  223  717  731  747  202  815  241  942  434  979  134  753 1000  944  130  155  560   38  790    6  971  119  660  393  706  709  866  625  974  264  729  780  939   94    4  750  227  309  385  920
  511  847  846   -1  490  553  974  344  419  416  115  194  698  781   94  202  297  558   52  327  586  754  506   59  822  674  218  396  969  598  401  868  349  812  666  687  524   70  248  436  120  501  848  603  103  115   50  698  360  455
  676  846  351  490   -1  857  790  793  447  398  702  951  404  496  133  175  363  536  446  554  512  360  996  494  934  486  894  333  951  675  631  793  872  169  589  152  358  620  275  972  451  945  789  148  394   15  396  138  167  486
  132  938  282  553  857   -1  281  478  543  928  798  393  815  638   54  227  272  830  221  337  234  983  804  721  447  883  364  791  699  974  817  308  413  958  748  307  933  307  792   13  608  781  281  604  785  678  351  626  200  730
  853   10  473  974  790  281   -1  892  266  341  745  814  332  231  697   72   79  503  961  272  633  729  208  723   22  370   48   52  600   86  354  761  691  231  642  882  928  179  896   27  689  250  860  798  930  524   53  572  510  588
  625   21  548  344  793  478  892   -1  423  436  657  953  464  215  265  212  312  571  805  395  307  441   86  663  314  855  962  767   50  229  831  820   59  799   35  281  588  832  843  545  968  560  717  667  689  594  554  674  214   49
  543  902  384  419  447  543  266  423   -1  863  576  331  164  992  703  659  740  756  296  567  438  476  680  789  230  459  976  630  169  606  558  634  359  981  677  129  321  605  843  215  382   34  514  681  261  528  377  993  193  375
   26  614  990  416  398  928  341  436  863   -1  531  280  288  986  889  354  436  891  879  747  817  414  989  448  348   71  915  730  386  211  469  745  864  992  523  975  452  788  557  119  724  515  530  566  323  749  251   79  982  663
  558   61  223  115  702  798  745  657  576  531   -1  256    4    4  201  457  168  192  789  271  466  597  872  551  160  356  793  313  317  949  435   29  983  972  786  954  429  489  898  920  748  236  377  715  591  718  348  859  818   10
  548  281  717  194  951  393  814  953  331  280  256   -1  937  987  843  951  386   59  650  109  480  237  318   60  605  523  585  755  414  593  650  302  378  269  295  160   58  238  159  602  740  400  599   52  380  881   59  274  655  552
  332  240  731  698  404  815  332  464  164  288    4  937   -1  586  652  840    3  695  702  338  835  673  385  310  625  457  405  337  716  336  233  226  326  883  911   80  591   99 1000  233  536  321   66  498  685  286  436  543  337  111
  970   51  747  781  496  638  231  215  992  986    4  987  586   -1  472  974  820  960  801  826  667  973  382  820  100  988  196  248  756  233  838   48  341  707  567  405  960  101  502  376  808  931  703  653  426  905  853  381  595  195
  650  340  202   94  133   54  697  265  703  889  201  843  652  472   -1  278  644   45  568   31  482  914  959  644  403  695  738   50  650  818   97  483  129   49  916  541  366  131  461  971  536  685   13  386  971  182  851  875  458  638
  744  174  815  202  175  227   72  212  659  354  457  951  840  974  278   -1  984  408  916  687  245  369  304  823  769  333  792  330  784  370  928  614  306  415  321  783  449  162  283  187  472  335   71  350  870  174    1  936  536  835
  615  538  241  297  363  272   79  312  740  436  168  386    3  820  644  984   -1  455  853  264  798  304  250   19  949  939  267    5  767  107  469  498  790  927  172  534  176   51  852  436  753  972  730  367  566  743  633  256  305  404
  815  496  942  558  536  830  503  571  756  891  192   59  695  960   45  408  455   -1  370  623  641  373  952  151  772  979  607  231   38  359   50  667  931  817  747  203  318  375  289  915  298  698  967  557  103  197   49  363    2  892
  412  168  434   52  446  221  961  805  296  879  789  650  702  801  568  916  853  370   -1  740  829  898  505  839  102  643  128   75   90  247  498  334  620  490  309  476  766  118  795  175  964  486   73   70  211  944  525  458  672  268
  905  503  979  327  554  337  272  395  567  747  271  109  338  826   31  687  264  623  740   -1  159  753  902  619  683  383  193  552  498  463  517  175  490  390  864  561  435  433   20  689  939  920  272  450  459   31  985  435  714  152
  150  217  134  586  512  234  633  307  438  817  466  480  835  667  482  245  798  641  829  159   -1  124  955  965  374   66   38    9  284  585  427  465  329  508   74  706  294  535   84  357   65  751  302  916  396  300  686  170  952   57
  717  934  753  754  360  983  729  441  476  414  597  237  673  973  914  369  304  373  898  753  124   -1  878  342  866  188  553  698  275  776  551  536  571  225  378  643  508  349  121  482  135   40  900  398  282  367  405  839   78  118
  692  254 1000  506  996  804  208   86  680  989  872  318  385  382  959  304  250  952  505  902  955  878   -1   81  683  911  621  626  897  142  295  371  234   83   11  755   40  700  295  416  703  591  838  830  165  956  635  269  118  939
  234  257  944   59  494  721  723  663  789  448  551   60  310  820  644  823   19  151  839  619  965  342   81   -1  533  192  198  555  236  544  429  605   63   56  432  280  181  432  280  751  343  748    6  586  287  608  311  265  147  644
  419  619  130  822  934  447   22  314  230  348  160  605  625  100  403  769  949  772  102  683  374  866  683  533   -1  644  452  183  771  816  828  124  327  865  373  829  411  162  293  233  427  254  582  767   47  493  231  764  194  483
  627  749  155  674  486  883  370  855  459   71  356  523  457  988  695  333  939  979  643  383   66  188  911  192  644   -1  231  729  876  606  238  680  715  351  242  935  396  715  947   62  510  874  242  146   20  659  690  705   91  502
  600  370  560  218  894  364   48  962  976  915  793  585  405  196  738  792  267  607  128  193   38  553  621  198  452  231   -1  916  537  265  208  328  676  254  233  134  770  613  721  963  811  432   84  862  534   38  978  162  380  472
  356  486   38  396  333  791   52  767  630  730  313  755  337  248   50  330    5  231   75  552    9  698  626  555  183  729  916   -1  989  166  714  990  658  832  123   13  909  948  897  167  347  205  497  258    9  668  496  391   50  512
  716  286  790  969  951  699  600   50  169  386  317  414  716  756  650  784  767   38   90  498  284  275  897  236  771  876  537  989   -1  371   80  564  874  294  811  619  868  155  531  946  635  135  488  599  993  309  652  856  757  753
  657  971    6  598  675  974   86  229  606  211  949  593  336  233  818  370  107  359  247  463  585  776  142  544  816  606  265  166  371   -1  585  228  763  184  732  462  691  679  279  862  820   77  819  357  216  842  357  112  564   46
  623  128  971  401  631  817  354  831  558  469  435  650  233  838   97  928  469   50  498  517  427  551  295  429  828  238  208  714   80  585   -1  477  610  978  277  107  737  119  525  228   99  230  787  774  759  956    1  408  397   56
  636  123  119  868  793  308  761  820  634  745   29  302  226   48  483  614  498  667  334  175  465  536  371  605  124  680  328  990  564  228  477   -1  224  627  822  321  365  626  572  610  160  770  587  960  146  256  834   22  487  829
  494  336  660  349  872  413  691   59  359  864  983  378  326  341  129  306  790  931  620  490  329  571  234   63  327  715  676  658  874  763  610  224   -1  842   98  708  405  349  706  357  282  557  136  850  155   41  349   72  909  752
  203  226  393  812  169  958  231  799  981  992  972  269  883  707   49  415  927  817  490  390  508  225   83   56  865  351  254  832  294  184  978  627  842   -1   65  998  866  208  991  131  693  852  916  476  358   98  687   43  814  278
  196  890  706  666  589  748  642   35  677  523  786  295  911  567  916  321  172  747  309  864   74  378   11  432  373  242  233  123  811  732  277  822   98   65   -1  995  393  721  813  532  480  731    1  310  246  794   63  940  363  534
  245  593  709  687  152  307  882  281  129  975  954  160   80  405  541  783  534  203  476  561  706  643  755  280  829  935  134   13  619  462  107  321  708  998  995   -1  893  595  655   28  138  814  549  171  690  702  822  690  868  482
  112  530  866  524  358  933  928  588  321  452  429   58  591  960  366  449  176  318  766  435  294  508   40  181  411  396  770  909  868  691  737  365  405  866  393  893   -1   67   32  141  256  218  174  583  964  352   12  546   62   77
  545  710  625   70  620  307  179  832  605  788  489  238   99  101  131  162   51  375  118  433  535  349  700  432  162  715  613  948  155  679  119  626  349  208  721  595   67   -1  104  295  642  331   94  784  741  154  227  726  463  797
  539  532  974  248  275  792  896  843  843  557  898  159 1000  502  461  283  852  289  795   20   84  121  295  280  293  947  721  897  531  279  525  572  706  991  813  655   32  104   -1  318   60  777  623  732  549  543  348  526  842  404
  262  739  264  436  972   13   27  545  215  119  920  602  233  376  971  187  436  915  175  689  357  482  416  751  233   62  963  167  946  862  228  610  357  131  532   28  141  295  318   -1  107  216  452  282  262  964  671  857  847  633
  566  187  729  120  451  608  689  968  382  724  748  740  536  808  536  472  753  298  964  939   65  135  703  343  427  510  811  347  635  820   99  160  282  693  480  138  256  642   60  107   -1  226  908  622  606  850  307  131  368  320
  658  466  780  501  945  781  250  560   34  515  236  400  321  931  685  335  972  698  486  920  751   40  591  748  254  874  432  205  135   77  230  770  557  852  731  814  218  331  777  216  226   -1  548  924  668  418  143  783  817  892
  946  102  939  848  789  281  860  717  514  530  377  599   66  703   13   71  730  967   73  272  302  900  838    6  582  242   84  497  488  819  787  587  136  916    1  549  174   94  623  452  908  548   -1  763  737  110  558  191  963  456
   21  938   94  603  148  604  798  667  681  566  715   52  498  653  386  350  367  557   70  450  916  398  830  586  767  146  862  258  599  357  774  960  850  476  310  171  583  784  732  282  622  924  763   -1  476  291  286  917   58  872
  697  544    4  103  394  785  930  689  261  323  591  380  685  426  971  870  566  103  211  459  396  282  165  287   47   20  534    9  993  216  759  146  155  358  246  690  964  741  549  262  606  668  737  476   -1   86   19  929  228  190
   64  914  750  115   15  678  524  594  528  749  718  881  286  905  182  174  743  197  944   31  300  367  956  608  493  659   38  668  309  842  956  256   41   98  794  702  352  154  543  964  850  418  110  291   86   -1   43  986  175   40
  615  951  227   50  396  351   53  554  377  251  348   59  436  853  851    1  633   49  525  985  686  405  635  311  231  690  978  496  652  357    1  834  349  687   63  822   12  227  348  671  307  143  558  286   19   43   -1  498  834  896
  474  139  309  698  138  626  572  674  993   79  859  274  543  381  875  936  256  363  458  435  170  839  269  265  764  705  162  391  856  112  408   22   72   43  940  690  546  726  526  857  131  783  191  917  929  986  498   -1  944   98
  170  153  385  360  167  200  510  214  193  982  818  655  337  595  458  536  305    2  672  714  952   78  118  147  194   91  380   50  757  564  397  487  909  814  363  868   62  463  842  847  368  817  963   58  228  175  834  944   -1  128
  639  386  920  455  486  730  588   49  375  663   10  552  111  195  638  835  404  892  268  152   57  118  939  644  483  502  472  512  753   46   56  829  752  278  534  482   77  797  404  633  320  892  456  872  190   40  896   98  128   -1
EOF
